
Value of objective function: 1.00000000

Actual values of the variables:
s1                              0
s2                              0
s3                              1
s4                              0
x1                              1
x2                              1
x3                              1
x4                              0
x5                              0
x6                              1
x7                              1
x8                              1
x9                              0
x10                             0
x11                             0
x12                             0
x13                             1
x14                             1
x15                             1
x16                             1
x17                             0
x18                             0
x19                             0
x20                             0
x21                             1
x22                             0
x23                             1
x24                             0
x25                             0
x26                             1
x27                             1
x28                             0
x29                             0
x30                             0
